82 300 154 156 198 189 182 157 191 152 156 170 158 159 155 160 176 182 163 188 172 156 164 189 195 155 163 162 192 195 185 166 184 163 197 181 151 178 162 167 181 194 187 163 152 166 173 178 198 187 190 169 193 154 183 161 184 196 199 175 165 183 165 173 170 161 154 196 164 191 162 169 184 173 182 186 189 155 189 186 192 178 180 158 